# Solution for model obj
# Objective value = 1.2556554237354262e+03
ch1_1_time0_q_out 849.1
ch1_1_time0_y 1
ch2_1_time0_q_out 0
ch2_1_time0_y 0
ch3_1_time0_q_out 0
ch3_1_time0_y 0
ep1_1_time0_m_flow 0
ep1_1_time0_y 1
ep1_1_time0_delp 5.2020575515464218e+00
ep2_1_time0_m_flow 0
ep2_1_time0_y 0
ep2_1_time0_delp 0
ep3_1_time0_m_flow 0
ep3_1_time0_y 0
ep3_1_time0_delp 0
cp1_1_time0_m_flow 0
cp1_1_time0_y 1
cp1_1_time0_delp 5.7548046450263639e+00
cp2_1_time0_m_flow 0
cp2_1_time0_y 0
cp2_1_time0_delp 0
cp3_1_time0_m_flow 0
cp3_1_time0_y 0
cp3_1_time0_delp 0
dist_np_combi_0_0_time0_m_flow 0
dist_np_combi_0_0_time0_y 0
dist_np_combi_0_0_time0_delp 0
dist_np_combi_1_0_time0_m_flow 0
dist_np_combi_1_0_time0_y 0
dist_np_combi_1_0_time0_delp 0
dist_np_combi_2_0_time0_m_flow 0
dist_np_combi_2_0_time0_y 0
dist_np_combi_2_0_time0_delp 0
dist_np_combi_3_0_time0_m_flow 0
dist_np_combi_3_0_time0_y 0
dist_np_combi_3_0_time0_delp 0
dist_np_combi_4_0_time0_m_flow 0
dist_np_combi_4_0_time0_y 0
dist_np_combi_4_0_time0_delp 0
dist_np_combi_5_0_time0_m_flow 0
dist_np_combi_5_0_time0_y 1
dist_np_combi_5_0_time0_delp 7.4498970342739934e-01
dist_np_combi_6_0_time0_m_flow 0
dist_np_combi_6_0_time0_y 0
dist_np_combi_6_0_time0_delp 0
enwk_1_time0_m_flow 0
enwk_1_time0_y 1
cnwk_1_time0_m_flow 0
cnwk_1_time0_y 1
ch1_1_time1_q_out 1.3020986238750002e+03
ch1_1_time1_y 1
ch2_1_time1_q_out 0
ch2_1_time1_y 0
ch3_1_time1_q_out 0
ch3_1_time1_y 0
ep1_1_time1_m_flow 0
ep1_1_time1_y 1
ep1_1_time1_delp 7.9773783761478594e+00
ep2_1_time1_m_flow 0
ep2_1_time1_y 0
ep2_1_time1_delp 0
ep3_1_time1_m_flow 0
ep3_1_time1_y 0
ep3_1_time1_delp 0
cp1_1_time1_m_flow 0
cp1_1_time1_y 1
cp1_1_time1_delp 8.5570738909208401e+00
cp2_1_time1_m_flow 0
cp2_1_time1_y 0
cp2_1_time1_delp 0
cp3_1_time1_m_flow 0
cp3_1_time1_y 0
cp3_1_time1_delp 0
dist_np_combi_0_0_time1_m_flow 0
dist_np_combi_0_0_time1_y 0
dist_np_combi_0_0_time1_delp 0
dist_np_combi_1_0_time1_m_flow 0
dist_np_combi_1_0_time1_y 0
dist_np_combi_1_0_time1_delp 0
dist_np_combi_2_0_time1_m_flow 0
dist_np_combi_2_0_time1_y 0
dist_np_combi_2_0_time1_delp 0
dist_np_combi_3_0_time1_m_flow 0
dist_np_combi_3_0_time1_y 0
dist_np_combi_3_0_time1_delp 0
dist_np_combi_4_0_time1_m_flow 0
dist_np_combi_4_0_time1_y 0
dist_np_combi_4_0_time1_delp 0
dist_np_combi_5_0_time1_m_flow 0
dist_np_combi_5_0_time1_y 1
dist_np_combi_5_0_time1_delp 7.4498970342739934e-01
dist_np_combi_6_0_time1_m_flow 0
dist_np_combi_6_0_time1_y 0
dist_np_combi_6_0_time1_delp 0
enwk_1_time1_m_flow 0
enwk_1_time1_y 1
cnwk_1_time1_m_flow 0
cnwk_1_time1_y 1
ch1_1_time2_q_out 0
ch1_1_time2_y 0
ch2_1_time2_q_out 0
ch2_1_time2_y 0
ch3_1_time2_q_out 0
ch3_1_time2_y 0
ep1_1_time2_m_flow 0
ep1_1_time2_y 0
ep1_1_time2_delp 0
ep2_1_time2_m_flow 0
ep2_1_time2_y 0
ep2_1_time2_delp 0
ep3_1_time2_m_flow 0
ep3_1_time2_y 0
ep3_1_time2_delp 0
cp1_1_time2_m_flow 0
cp1_1_time2_y 0
cp1_1_time2_delp 0
cp2_1_time2_m_flow 0
cp2_1_time2_y 0
cp2_1_time2_delp 0
cp3_1_time2_m_flow 0
cp3_1_time2_y 0
cp3_1_time2_delp 0
dist_np_combi_0_0_time2_m_flow 0
dist_np_combi_0_0_time2_y 0
dist_np_combi_0_0_time2_delp 0
dist_np_combi_1_0_time2_m_flow 0
dist_np_combi_1_0_time2_y 0
dist_np_combi_1_0_time2_delp 0
dist_np_combi_2_0_time2_m_flow 0
dist_np_combi_2_0_time2_y 0
dist_np_combi_2_0_time2_delp 0
dist_np_combi_3_0_time2_m_flow 0
dist_np_combi_3_0_time2_y 0
dist_np_combi_3_0_time2_delp 0
dist_np_combi_4_0_time2_m_flow 0
dist_np_combi_4_0_time2_y 0
dist_np_combi_4_0_time2_delp 0
dist_np_combi_5_0_time2_m_flow 0
dist_np_combi_5_0_time2_y 1
dist_np_combi_5_0_time2_delp 3.2272910923302600e-01
dist_np_combi_6_0_time2_m_flow 0
dist_np_combi_6_0_time2_y 0
dist_np_combi_6_0_time2_delp 0
enwk_1_time2_m_flow 0
enwk_1_time2_y 1
cnwk_1_time2_m_flow 0
cnwk_1_time2_y 1
ch1_1_time3_q_out 1.1293059403687398e+03
ch1_1_time3_y 1
ch2_1_time3_q_out 0
ch2_1_time3_y 0
ch3_1_time3_q_out 0
ch3_1_time3_y 0
ep1_1_time3_m_flow 0
ep1_1_time3_y 1
ep1_1_time3_delp 6.9187545578865102e+00
ep2_1_time3_m_flow 0
ep2_1_time3_y 0
ep2_1_time3_delp 0
ep3_1_time3_m_flow 0
ep3_1_time3_y 0
ep3_1_time3_delp 0
cp1_1_time3_m_flow 0
cp1_1_time3_y 1
cp1_1_time3_delp 7.4582917846374999e+00
cp2_1_time3_m_flow 0
cp2_1_time3_y 0
cp2_1_time3_delp 0
cp3_1_time3_m_flow 0
cp3_1_time3_y 0
cp3_1_time3_delp 0
dist_np_combi_0_0_time3_m_flow 0
dist_np_combi_0_0_time3_y 0
dist_np_combi_0_0_time3_delp 0
dist_np_combi_1_0_time3_m_flow 0
dist_np_combi_1_0_time3_y 0
dist_np_combi_1_0_time3_delp 0
dist_np_combi_2_0_time3_m_flow 0
dist_np_combi_2_0_time3_y 0
dist_np_combi_2_0_time3_delp 0
dist_np_combi_3_0_time3_m_flow 0
dist_np_combi_3_0_time3_y 0
dist_np_combi_3_0_time3_delp 0
dist_np_combi_4_0_time3_m_flow 0
dist_np_combi_4_0_time3_y 0
dist_np_combi_4_0_time3_delp 0
dist_np_combi_5_0_time3_m_flow 0
dist_np_combi_5_0_time3_y 1
dist_np_combi_5_0_time3_delp 6.6728714303784098e-01
dist_np_combi_6_0_time3_m_flow 0
dist_np_combi_6_0_time3_y 0
dist_np_combi_6_0_time3_delp 0
enwk_1_time3_m_flow 0
enwk_1_time3_y 1
cnwk_1_time3_m_flow 0
cnwk_1_time3_y 1
ch1_1_time4_q_out 0
ch1_1_time4_y 0
ch2_1_time4_q_out 0
ch2_1_time4_y 0
ch3_1_time4_q_out 0
ch3_1_time4_y 0
ep1_1_time4_m_flow 0
ep1_1_time4_y 0
ep1_1_time4_delp 0
ep2_1_time4_m_flow 0
ep2_1_time4_y 0
ep2_1_time4_delp 0
ep3_1_time4_m_flow 0
ep3_1_time4_y 0
ep3_1_time4_delp 0
cp1_1_time4_m_flow 0
cp1_1_time4_y 0
cp1_1_time4_delp 0
cp2_1_time4_m_flow 0
cp2_1_time4_y 0
cp2_1_time4_delp 0
cp3_1_time4_m_flow 0
cp3_1_time4_y 0
cp3_1_time4_delp 0
dist_np_combi_0_0_time4_m_flow 0
dist_np_combi_0_0_time4_y 0
dist_np_combi_0_0_time4_delp 0
dist_np_combi_1_0_time4_m_flow 0
dist_np_combi_1_0_time4_y 0
dist_np_combi_1_0_time4_delp 0
dist_np_combi_2_0_time4_m_flow 0
dist_np_combi_2_0_time4_y 0
dist_np_combi_2_0_time4_delp 0
dist_np_combi_3_0_time4_m_flow 0
dist_np_combi_3_0_time4_y 0
dist_np_combi_3_0_time4_delp 0
dist_np_combi_4_0_time4_m_flow 0
dist_np_combi_4_0_time4_y 0
dist_np_combi_4_0_time4_delp 0
dist_np_combi_5_0_time4_m_flow 0
dist_np_combi_5_0_time4_y 1
dist_np_combi_5_0_time4_delp 3.1517440058030632e-01
dist_np_combi_6_0_time4_m_flow 0
dist_np_combi_6_0_time4_y 0
dist_np_combi_6_0_time4_delp 0
enwk_1_time4_m_flow 0
enwk_1_time4_y 1
cnwk_1_time4_m_flow 0
cnwk_1_time4_y 1
ch1_1_time5_q_out 0
ch1_1_time5_y 0
ch2_1_time5_q_out 0
ch2_1_time5_y 0
ch3_1_time5_q_out 0
ch3_1_time5_y 0
ep1_1_time5_m_flow 0
ep1_1_time5_y 0
ep1_1_time5_delp 0
ep2_1_time5_m_flow 0
ep2_1_time5_y 0
ep2_1_time5_delp 0
ep3_1_time5_m_flow 0
ep3_1_time5_y 0
ep3_1_time5_delp 0
cp1_1_time5_m_flow 0
cp1_1_time5_y 0
cp1_1_time5_delp 0
cp2_1_time5_m_flow 0
cp2_1_time5_y 0
cp2_1_time5_delp 0
cp3_1_time5_m_flow 0
cp3_1_time5_y 0
cp3_1_time5_delp 0
dist_np_combi_0_0_time5_m_flow 0
dist_np_combi_0_0_time5_y 0
dist_np_combi_0_0_time5_delp 0
dist_np_combi_1_0_time5_m_flow 0
dist_np_combi_1_0_time5_y 0
dist_np_combi_1_0_time5_delp 0
dist_np_combi_2_0_time5_m_flow 0
dist_np_combi_2_0_time5_y 0
dist_np_combi_2_0_time5_delp 0
dist_np_combi_3_0_time5_m_flow 0
dist_np_combi_3_0_time5_y 0
dist_np_combi_3_0_time5_delp 0
dist_np_combi_4_0_time5_m_flow 0
dist_np_combi_4_0_time5_y 0
dist_np_combi_4_0_time5_delp 0
dist_np_combi_5_0_time5_m_flow 0
dist_np_combi_5_0_time5_y 1
dist_np_combi_5_0_time5_delp 3.1530611339869408e-01
dist_np_combi_6_0_time5_m_flow 0
dist_np_combi_6_0_time5_y 0
dist_np_combi_6_0_time5_delp 0
enwk_1_time5_m_flow 0
enwk_1_time5_y 1
cnwk_1_time5_m_flow 0
cnwk_1_time5_y 1
ch1_1_time6_q_out 1.1252575229350048e+03
ch1_1_time6_y 1
ch2_1_time6_q_out 0
ch2_1_time6_y 0
ch3_1_time6_q_out 0
ch3_1_time6_y 0
ep1_1_time6_m_flow 0
ep1_1_time6_y 1
ep1_1_time6_delp 6.8939517072411522e+00
ep2_1_time6_m_flow 0
ep2_1_time6_y 0
ep2_1_time6_delp 0
ep3_1_time6_m_flow 0
ep3_1_time6_y 0
ep3_1_time6_delp 0
cp1_1_time6_m_flow 0
cp1_1_time6_y 1
cp1_1_time6_delp 7.1651249222827857e+00
cp2_1_time6_m_flow 0
cp2_1_time6_y 0
cp2_1_time6_delp 0
cp3_1_time6_m_flow 0
cp3_1_time6_y 0
cp3_1_time6_delp 0
dist_np_combi_0_0_time6_m_flow 0
dist_np_combi_0_0_time6_y 0
dist_np_combi_0_0_time6_delp 0
dist_np_combi_1_0_time6_m_flow 0
dist_np_combi_1_0_time6_y 0
dist_np_combi_1_0_time6_delp 0
dist_np_combi_2_0_time6_m_flow 0
dist_np_combi_2_0_time6_y 0
dist_np_combi_2_0_time6_delp 0
dist_np_combi_3_0_time6_m_flow 0
dist_np_combi_3_0_time6_y 0
dist_np_combi_3_0_time6_delp 0
dist_np_combi_4_0_time6_m_flow 0
dist_np_combi_4_0_time6_y 0
dist_np_combi_4_0_time6_delp 0
dist_np_combi_5_0_time6_m_flow 0
dist_np_combi_5_0_time6_y 1
dist_np_combi_5_0_time6_delp 3.1517440058030632e-01
dist_np_combi_6_0_time6_m_flow 0
dist_np_combi_6_0_time6_y 0
dist_np_combi_6_0_time6_delp 0
enwk_1_time6_m_flow 0
enwk_1_time6_y 1
cnwk_1_time6_m_flow 0
cnwk_1_time6_y 1
ch1_1_time7_q_out 0
ch1_1_time7_y 0
ch2_1_time7_q_out 0
ch2_1_time7_y 0
ch3_1_time7_q_out 0
ch3_1_time7_y 0
ep1_1_time7_m_flow 0
ep1_1_time7_y 0
ep1_1_time7_delp 0
ep2_1_time7_m_flow 0
ep2_1_time7_y 0
ep2_1_time7_delp 0
ep3_1_time7_m_flow 0
ep3_1_time7_y 0
ep3_1_time7_delp 0
cp1_1_time7_m_flow 0
cp1_1_time7_y 0
cp1_1_time7_delp 0
cp2_1_time7_m_flow 0
cp2_1_time7_y 0
cp2_1_time7_delp 0
cp3_1_time7_m_flow 0
cp3_1_time7_y 0
cp3_1_time7_delp 0
dist_np_combi_0_0_time7_m_flow 0
dist_np_combi_0_0_time7_y 0
dist_np_combi_0_0_time7_delp 0
dist_np_combi_1_0_time7_m_flow 0
dist_np_combi_1_0_time7_y 0
dist_np_combi_1_0_time7_delp 0
dist_np_combi_2_0_time7_m_flow 0
dist_np_combi_2_0_time7_y 0
dist_np_combi_2_0_time7_delp 0
dist_np_combi_3_0_time7_m_flow 0
dist_np_combi_3_0_time7_y 0
dist_np_combi_3_0_time7_delp 0
dist_np_combi_4_0_time7_m_flow 0
dist_np_combi_4_0_time7_y 0
dist_np_combi_4_0_time7_delp 0
dist_np_combi_5_0_time7_m_flow 0
dist_np_combi_5_0_time7_y 1
dist_np_combi_5_0_time7_delp 3.1019145743080294e+00
dist_np_combi_6_0_time7_m_flow 0
dist_np_combi_6_0_time7_y 0
dist_np_combi_6_0_time7_delp 0
enwk_1_time7_m_flow 0
enwk_1_time7_y 1
cnwk_1_time7_m_flow 0
cnwk_1_time7_y 1
ch1_1_time8_q_out 1.8950440367000001e+03
ch1_1_time8_y 1
ch2_1_time8_q_out 0
ch2_1_time8_y 0
ch3_1_time8_q_out 0
ch3_1_time8_y 0
ep1_1_time8_m_flow 0
ep1_1_time8_y 1
ep1_1_time8_delp 1.1610090851051996e+01
ep2_1_time8_m_flow 0
ep2_1_time8_y 0
ep2_1_time8_delp 0
ep3_1_time8_m_flow 0
ep3_1_time8_y 0
ep3_1_time8_delp 0
cp1_1_time8_m_flow 0
cp1_1_time8_y 1
cp1_1_time8_delp 1.1933360704310141e+01
cp2_1_time8_m_flow 0
cp2_1_time8_y 0
cp2_1_time8_delp 0
cp3_1_time8_m_flow 0
cp3_1_time8_y 0
cp3_1_time8_delp 0
dist_np_combi_0_0_time8_m_flow 0
dist_np_combi_0_0_time8_y 0
dist_np_combi_0_0_time8_delp 0
dist_np_combi_1_0_time8_m_flow 0
dist_np_combi_1_0_time8_y 0
dist_np_combi_1_0_time8_delp 0
dist_np_combi_2_0_time8_m_flow 0
dist_np_combi_2_0_time8_y 0
dist_np_combi_2_0_time8_delp 0
dist_np_combi_3_0_time8_m_flow 0
dist_np_combi_3_0_time8_y 0
dist_np_combi_3_0_time8_delp 0
dist_np_combi_4_0_time8_m_flow 0
dist_np_combi_4_0_time8_y 0
dist_np_combi_4_0_time8_delp 0
dist_np_combi_5_0_time8_m_flow 0
dist_np_combi_5_0_time8_y 1
dist_np_combi_5_0_time8_delp 4.9307386655376213e+00
dist_np_combi_6_0_time8_m_flow 0
dist_np_combi_6_0_time8_y 0
dist_np_combi_6_0_time8_delp 0
enwk_1_time8_m_flow 0
enwk_1_time8_y 1
cnwk_1_time8_m_flow 0
cnwk_1_time8_y 1
ch1_1_time9_q_out 1379.1
ch1_1_time9_y 1
ch2_1_time9_q_out 0
ch2_1_time9_y 0
ch3_1_time9_q_out 0
ch3_1_time9_y 0
ep1_1_time9_m_flow 0
ep1_1_time9_y 1
ep1_1_time9_delp 8.4491315149424917e+00
ep2_1_time9_m_flow 0
ep2_1_time9_y 0
ep2_1_time9_delp 0
ep3_1_time9_m_flow 0
ep3_1_time9_y 0
ep3_1_time9_delp 0
cp1_1_time9_m_flow 0
cp1_1_time9_y 1
cp1_1_time9_delp 9.0002901176273049e+00
cp2_1_time9_m_flow 0
cp2_1_time9_y 0
cp2_1_time9_delp 0
cp3_1_time9_m_flow 0
cp3_1_time9_y 0
cp3_1_time9_delp 0
dist_np_combi_0_0_time9_m_flow 0
dist_np_combi_0_0_time9_y 0
dist_np_combi_0_0_time9_delp 0
dist_np_combi_1_0_time9_m_flow 0
dist_np_combi_1_0_time9_y 0
dist_np_combi_1_0_time9_delp 0
dist_np_combi_2_0_time9_m_flow 0
dist_np_combi_2_0_time9_y 0
dist_np_combi_2_0_time9_delp 0
dist_np_combi_3_0_time9_m_flow 0
dist_np_combi_3_0_time9_y 0
dist_np_combi_3_0_time9_delp 0
dist_np_combi_4_0_time9_m_flow 0
dist_np_combi_4_0_time9_y 0
dist_np_combi_4_0_time9_delp 0
dist_np_combi_5_0_time9_m_flow 0
dist_np_combi_5_0_time9_y 1
dist_np_combi_5_0_time9_delp 3.9625238171721668e+00
dist_np_combi_6_0_time9_m_flow 0
dist_np_combi_6_0_time9_y 0
dist_np_combi_6_0_time9_delp 0
enwk_1_time9_m_flow 0
enwk_1_time9_y 1
cnwk_1_time9_m_flow 0
cnwk_1_time9_y 1
ch1_1_time10_q_out 1968.2
ch1_1_time10_y 1
ch2_1_time10_q_out 0
ch2_1_time10_y 0
ch3_1_time10_q_out 0
ch3_1_time10_y 0
ep1_1_time10_m_flow 0
ep1_1_time10_y 1
ep1_1_time10_delp 1.2058284858030465e+01
ep2_1_time10_m_flow 0
ep2_1_time10_y 0
ep2_1_time10_delp 0
ep3_1_time10_m_flow 0
ep3_1_time10_y 0
ep3_1_time10_delp 0
cp1_1_time10_m_flow 0
cp1_1_time10_y 1
cp1_1_time10_delp 1.2770674991713115e+01
cp2_1_time10_m_flow 0
cp2_1_time10_y 0
cp2_1_time10_delp 0
cp3_1_time10_m_flow 0
cp3_1_time10_y 0
cp3_1_time10_delp 0
dist_np_combi_0_0_time10_m_flow 0
dist_np_combi_0_0_time10_y 0
dist_np_combi_0_0_time10_delp 0
dist_np_combi_1_0_time10_m_flow 0
dist_np_combi_1_0_time10_y 0
dist_np_combi_1_0_time10_delp 0
dist_np_combi_2_0_time10_m_flow 0
dist_np_combi_2_0_time10_y 0
dist_np_combi_2_0_time10_delp 0
dist_np_combi_3_0_time10_m_flow 0
dist_np_combi_3_0_time10_y 0
dist_np_combi_3_0_time10_delp 0
dist_np_combi_4_0_time10_m_flow 0
dist_np_combi_4_0_time10_y 0
dist_np_combi_4_0_time10_delp 0
dist_np_combi_5_0_time10_m_flow 0
dist_np_combi_5_0_time10_y 1
dist_np_combi_5_0_time10_delp 3.6749460296937180e+00
dist_np_combi_6_0_time10_m_flow 0
dist_np_combi_6_0_time10_y 0
dist_np_combi_6_0_time10_delp 0
enwk_1_time10_m_flow 0
enwk_1_time10_y 1
cnwk_1_time10_m_flow 0
cnwk_1_time10_y 1
ch1_1_time11_q_out 0
ch1_1_time11_y 0
ch2_1_time11_q_out 0
ch2_1_time11_y 0
ch3_1_time11_q_out 2477.3
ch3_1_time11_y 1
ep1_1_time11_m_flow 0
ep1_1_time11_y 0
ep1_1_time11_delp 0
ep2_1_time11_m_flow 0
ep2_1_time11_y 0
ep2_1_time11_delp 0
ep3_1_time11_m_flow 0
ep3_1_time11_y 1
ep3_1_time11_delp 5.7260109803939363e+00
cp1_1_time11_m_flow 0
cp1_1_time11_y 0
cp1_1_time11_delp 0
cp2_1_time11_m_flow 0
cp2_1_time11_y 0
cp2_1_time11_delp 0
cp3_1_time11_m_flow 0
cp3_1_time11_y 1
cp3_1_time11_delp 6.6194733463182143e+00
dist_np_combi_0_0_time11_m_flow 0
dist_np_combi_0_0_time11_y 0
dist_np_combi_0_0_time11_delp 0
dist_np_combi_1_0_time11_m_flow 0
dist_np_combi_1_0_time11_y 0
dist_np_combi_1_0_time11_delp 0
dist_np_combi_2_0_time11_m_flow 0
dist_np_combi_2_0_time11_y 0
dist_np_combi_2_0_time11_delp 0
dist_np_combi_3_0_time11_m_flow 0
dist_np_combi_3_0_time11_y 0
dist_np_combi_3_0_time11_delp 0
dist_np_combi_4_0_time11_m_flow 0
dist_np_combi_4_0_time11_y 0
dist_np_combi_4_0_time11_delp 0
dist_np_combi_5_0_time11_m_flow 0
dist_np_combi_5_0_time11_y 1
dist_np_combi_5_0_time11_delp 5.1088668434285536e+00
dist_np_combi_6_0_time11_m_flow 0
dist_np_combi_6_0_time11_y 0
dist_np_combi_6_0_time11_delp 0
enwk_1_time11_m_flow 0
enwk_1_time11_y 1
cnwk_1_time11_m_flow 0
cnwk_1_time11_y 1
ch1_1_time12_q_out 0
ch1_1_time12_y 0
ch2_1_time12_q_out 0
ch2_1_time12_y 0
ch3_1_time12_q_out 3076.4
ch3_1_time12_y 1
ep1_1_time12_m_flow 0
ep1_1_time12_y 0
ep1_1_time12_delp 0
ep2_1_time12_m_flow 0
ep2_1_time12_y 0
ep2_1_time12_delp 0
ep3_1_time12_m_flow 0
ep3_1_time12_y 1
ep3_1_time12_delp 7.1107658257312014e+00
cp1_1_time12_m_flow 0
cp1_1_time12_y 0
cp1_1_time12_delp 0
cp2_1_time12_m_flow 0
cp2_1_time12_y 0
cp2_1_time12_delp 0
cp3_1_time12_m_flow 0
cp3_1_time12_y 1
cp3_1_time12_delp 8.0562098223987917e+00
dist_np_combi_0_0_time12_m_flow 0
dist_np_combi_0_0_time12_y 0
dist_np_combi_0_0_time12_delp 0
dist_np_combi_1_0_time12_m_flow 0
dist_np_combi_1_0_time12_y 0
dist_np_combi_1_0_time12_delp 0
dist_np_combi_2_0_time12_m_flow 0
dist_np_combi_2_0_time12_y 0
dist_np_combi_2_0_time12_delp 0
dist_np_combi_3_0_time12_m_flow 0
dist_np_combi_3_0_time12_y 0
dist_np_combi_3_0_time12_delp 0
dist_np_combi_4_0_time12_m_flow 0
dist_np_combi_4_0_time12_y 0
dist_np_combi_4_0_time12_delp 0
dist_np_combi_5_0_time12_m_flow 0
dist_np_combi_5_0_time12_y 1
dist_np_combi_5_0_time12_delp 4.9307386655376213e+00
dist_np_combi_6_0_time12_m_flow 0
dist_np_combi_6_0_time12_y 0
dist_np_combi_6_0_time12_delp 0
enwk_1_time12_m_flow 0
enwk_1_time12_y 1
cnwk_1_time12_m_flow 0
cnwk_1_time12_y 1
ch1_1_time13_q_out 0
ch1_1_time13_y 0
ch2_1_time13_q_out 0
ch2_1_time13_y 0
ch3_1_time13_q_out 2597.3
ch3_1_time13_y 1
ep1_1_time13_m_flow 0
ep1_1_time13_y 0
ep1_1_time13_delp 0
ep2_1_time13_m_flow 0
ep2_1_time13_y 0
ep2_1_time13_delp 0
ep3_1_time13_m_flow 0
ep3_1_time13_y 1
ep3_1_time13_delp 6.0033779999907848e+00
cp1_1_time13_m_flow 0
cp1_1_time13_y 0
cp1_1_time13_delp 0
cp2_1_time13_m_flow 0
cp2_1_time13_y 0
cp2_1_time13_delp 0
cp3_1_time13_m_flow 0
cp3_1_time13_y 1
cp3_1_time13_delp 6.9232870248156404e+00
dist_np_combi_0_0_time13_m_flow 0
dist_np_combi_0_0_time13_y 0
dist_np_combi_0_0_time13_delp 0
dist_np_combi_1_0_time13_m_flow 0
dist_np_combi_1_0_time13_y 0
dist_np_combi_1_0_time13_delp 0
dist_np_combi_2_0_time13_m_flow 0
dist_np_combi_2_0_time13_y 0
dist_np_combi_2_0_time13_delp 0
dist_np_combi_3_0_time13_m_flow 0
dist_np_combi_3_0_time13_y 0
dist_np_combi_3_0_time13_delp 0
dist_np_combi_4_0_time13_m_flow 0
dist_np_combi_4_0_time13_y 0
dist_np_combi_4_0_time13_delp 0
dist_np_combi_5_0_time13_m_flow 0
dist_np_combi_5_0_time13_y 1
dist_np_combi_5_0_time13_delp 5.1719515345074516e+00
dist_np_combi_6_0_time13_m_flow 0
dist_np_combi_6_0_time13_y 0
dist_np_combi_6_0_time13_delp 0
enwk_1_time13_m_flow 0
enwk_1_time13_y 1
cnwk_1_time13_m_flow 0
cnwk_1_time13_y 1
ch1_1_time14_q_out 0
ch1_1_time14_y 0
ch2_1_time14_q_out 0
ch2_1_time14_y 0
ch3_1_time14_q_out 2946.4
ch3_1_time14_y 1
ep1_1_time14_m_flow 0
ep1_1_time14_y 0
ep1_1_time14_delp 0
ep2_1_time14_m_flow 0
ep2_1_time14_y 0
ep2_1_time14_delp 0
ep3_1_time14_m_flow 0
ep3_1_time14_y 1
ep3_1_time14_delp 6.8102848878346158e+00
cp1_1_time14_m_flow 0
cp1_1_time14_y 0
cp1_1_time14_delp 0
cp2_1_time14_m_flow 0
cp2_1_time14_y 0
cp2_1_time14_delp 0
cp3_1_time14_m_flow 0
cp3_1_time14_y 1
cp3_1_time14_delp 7.7689549549615640e+00
dist_np_combi_0_0_time14_m_flow 0
dist_np_combi_0_0_time14_y 0
dist_np_combi_0_0_time14_delp 0
dist_np_combi_1_0_time14_m_flow 0
dist_np_combi_1_0_time14_y 0
dist_np_combi_1_0_time14_delp 0
dist_np_combi_2_0_time14_m_flow 0
dist_np_combi_2_0_time14_y 0
dist_np_combi_2_0_time14_delp 0
dist_np_combi_3_0_time14_m_flow 0
dist_np_combi_3_0_time14_y 0
dist_np_combi_3_0_time14_delp 0
dist_np_combi_4_0_time14_m_flow 0
dist_np_combi_4_0_time14_y 0
dist_np_combi_4_0_time14_delp 0
dist_np_combi_5_0_time14_m_flow 0
dist_np_combi_5_0_time14_y 1
dist_np_combi_5_0_time14_delp 4.6067171095987414e+00
dist_np_combi_6_0_time14_m_flow 0
dist_np_combi_6_0_time14_y 0
dist_np_combi_6_0_time14_delp 0
enwk_1_time14_m_flow 0
enwk_1_time14_y 1
cnwk_1_time14_m_flow 0
cnwk_1_time14_y 1
ch1_1_time15_q_out 0
ch1_1_time15_y 0
ch2_1_time15_q_out 0
ch2_1_time15_y 0
ch3_1_time15_q_out 3136.4
ch3_1_time15_y 1
ep1_1_time15_m_flow 0
ep1_1_time15_y 0
ep1_1_time15_delp 0
ep2_1_time15_m_flow 0
ep2_1_time15_y 0
ep2_1_time15_delp 0
ep3_1_time15_m_flow 0
ep3_1_time15_y 1
ep3_1_time15_delp 7.2494493355296257e+00
cp1_1_time15_m_flow 0
cp1_1_time15_y 0
cp1_1_time15_delp 0
cp2_1_time15_m_flow 0
cp2_1_time15_y 0
cp2_1_time15_delp 0
cp3_1_time15_m_flow 0
cp3_1_time15_y 1
cp3_1_time15_delp 8.2194365989754061e+00
dist_np_combi_0_0_time15_m_flow 0
dist_np_combi_0_0_time15_y 0
dist_np_combi_0_0_time15_delp 0
dist_np_combi_1_0_time15_m_flow 0
dist_np_combi_1_0_time15_y 0
dist_np_combi_1_0_time15_delp 0
dist_np_combi_2_0_time15_m_flow 0
dist_np_combi_2_0_time15_y 0
dist_np_combi_2_0_time15_delp 0
dist_np_combi_3_0_time15_m_flow 0
dist_np_combi_3_0_time15_y 0
dist_np_combi_3_0_time15_delp 0
dist_np_combi_4_0_time15_m_flow 0
dist_np_combi_4_0_time15_y 0
dist_np_combi_4_0_time15_delp 0
dist_np_combi_5_0_time15_m_flow 0
dist_np_combi_5_0_time15_y 1
dist_np_combi_5_0_time15_delp 5.5501426537105942e+00
dist_np_combi_6_0_time15_m_flow 0
dist_np_combi_6_0_time15_y 0
dist_np_combi_6_0_time15_delp 0
enwk_1_time15_m_flow 0
enwk_1_time15_y 1
cnwk_1_time15_m_flow 0
cnwk_1_time15_y 1
ch1_1_time16_q_out 0
ch1_1_time16_y 0
ch2_1_time16_q_out 0
ch2_1_time16_y 0
ch3_1_time16_q_out 3046.4
ch3_1_time16_y 1
ep1_1_time16_m_flow 0
ep1_1_time16_y 0
ep1_1_time16_delp 0
ep2_1_time16_m_flow 0
ep2_1_time16_y 0
ep2_1_time16_delp 0
ep3_1_time16_m_flow 0
ep3_1_time16_y 1
ep3_1_time16_delp 7.0414240708319893e+00
cp1_1_time16_m_flow 0
cp1_1_time16_y 0
cp1_1_time16_delp 0
cp2_1_time16_m_flow 0
cp2_1_time16_y 0
cp2_1_time16_delp 0
cp3_1_time16_m_flow 0
cp3_1_time16_y 1
cp3_1_time16_delp 7.9852691337586439e+00
dist_np_combi_0_0_time16_m_flow 0
dist_np_combi_0_0_time16_y 0
dist_np_combi_0_0_time16_delp 0
dist_np_combi_1_0_time16_m_flow 0
dist_np_combi_1_0_time16_y 0
dist_np_combi_1_0_time16_delp 0
dist_np_combi_2_0_time16_m_flow 0
dist_np_combi_2_0_time16_y 0
dist_np_combi_2_0_time16_delp 0
dist_np_combi_3_0_time16_m_flow 0
dist_np_combi_3_0_time16_y 0
dist_np_combi_3_0_time16_delp 0
dist_np_combi_4_0_time16_m_flow 0
dist_np_combi_4_0_time16_y 0
dist_np_combi_4_0_time16_delp 0
dist_np_combi_5_0_time16_m_flow 0
dist_np_combi_5_0_time16_y 1
dist_np_combi_5_0_time16_delp 5.7065198683864287e+00
dist_np_combi_6_0_time16_m_flow 0
dist_np_combi_6_0_time16_y 0
dist_np_combi_6_0_time16_delp 0
enwk_1_time16_m_flow 0
enwk_1_time16_y 1
cnwk_1_time16_m_flow 0
cnwk_1_time16_y 1
ch1_1_time17_q_out 0
ch1_1_time17_y 0
ch2_1_time17_q_out 0
ch2_1_time17_y 0
ch3_1_time17_q_out 3086.4
ch3_1_time17_y 1
ep1_1_time17_m_flow 0
ep1_1_time17_y 0
ep1_1_time17_delp 0
ep2_1_time17_m_flow 0
ep2_1_time17_y 0
ep2_1_time17_delp 0
ep3_1_time17_m_flow 0
ep3_1_time17_y 1
ep3_1_time17_delp 7.1338797440309394e+00
cp1_1_time17_m_flow 0
cp1_1_time17_y 0
cp1_1_time17_delp 0
cp2_1_time17_m_flow 0
cp2_1_time17_y 0
cp2_1_time17_delp 0
cp3_1_time17_m_flow 0
cp3_1_time17_y 1
cp3_1_time17_delp 8.0798567186121737e+00
dist_np_combi_0_0_time17_m_flow 0
dist_np_combi_0_0_time17_y 0
dist_np_combi_0_0_time17_delp 0
dist_np_combi_1_0_time17_m_flow 0
dist_np_combi_1_0_time17_y 0
dist_np_combi_1_0_time17_delp 0
dist_np_combi_2_0_time17_m_flow 0
dist_np_combi_2_0_time17_y 0
dist_np_combi_2_0_time17_delp 0
dist_np_combi_3_0_time17_m_flow 0
dist_np_combi_3_0_time17_y 0
dist_np_combi_3_0_time17_delp 0
dist_np_combi_4_0_time17_m_flow 0
dist_np_combi_4_0_time17_y 0
dist_np_combi_4_0_time17_delp 0
dist_np_combi_5_0_time17_m_flow 0
dist_np_combi_5_0_time17_y 1
dist_np_combi_5_0_time17_delp 5.0798642226756670e+00
dist_np_combi_6_0_time17_m_flow 0
dist_np_combi_6_0_time17_y 0
dist_np_combi_6_0_time17_delp 0
enwk_1_time17_m_flow 0
enwk_1_time17_y 1
cnwk_1_time17_m_flow 0
cnwk_1_time17_y 1
ch1_1_time18_q_out 0
ch1_1_time18_y 0
ch2_1_time18_q_out 0
ch2_1_time18_y 0
ch3_1_time18_q_out 2996.4
ch3_1_time18_y 1
ep1_1_time18_m_flow 0
ep1_1_time18_y 0
ep1_1_time18_delp 0
ep2_1_time18_m_flow 0
ep2_1_time18_y 0
ep2_1_time18_delp 0
ep3_1_time18_m_flow 0
ep3_1_time18_y 1
ep3_1_time18_delp 6.9258544793333030e+00
cp1_1_time18_m_flow 0
cp1_1_time18_y 0
cp1_1_time18_delp 0
cp2_1_time18_m_flow 0
cp2_1_time18_y 0
cp2_1_time18_delp 0
cp3_1_time18_m_flow 0
cp3_1_time18_y 1
cp3_1_time18_delp 7.8670346526917321e+00
dist_np_combi_0_0_time18_m_flow 0
dist_np_combi_0_0_time18_y 0
dist_np_combi_0_0_time18_delp 0
dist_np_combi_1_0_time18_m_flow 0
dist_np_combi_1_0_time18_y 0
dist_np_combi_1_0_time18_delp 0
dist_np_combi_2_0_time18_m_flow 0
dist_np_combi_2_0_time18_y 0
dist_np_combi_2_0_time18_delp 0
dist_np_combi_3_0_time18_m_flow 0
dist_np_combi_3_0_time18_y 0
dist_np_combi_3_0_time18_delp 0
dist_np_combi_4_0_time18_m_flow 0
dist_np_combi_4_0_time18_y 0
dist_np_combi_4_0_time18_delp 0
dist_np_combi_5_0_time18_m_flow 0
dist_np_combi_5_0_time18_y 1
dist_np_combi_5_0_time18_delp 5.1139254662021969e+00
dist_np_combi_6_0_time18_m_flow 0
dist_np_combi_6_0_time18_y 0
dist_np_combi_6_0_time18_delp 0
enwk_1_time18_m_flow 0
enwk_1_time18_y 1
cnwk_1_time18_m_flow 0
cnwk_1_time18_y 1
ch1_1_time19_q_out 0
ch1_1_time19_y 0
ch2_1_time19_q_out 0
ch2_1_time19_y 0
ch3_1_time19_q_out 2547.3
ch3_1_time19_y 1
ep1_1_time19_m_flow 0
ep1_1_time19_y 0
ep1_1_time19_delp 0
ep2_1_time19_m_flow 0
ep2_1_time19_y 0
ep2_1_time19_delp 0
ep3_1_time19_m_flow 0
ep3_1_time19_y 1
ep3_1_time19_delp 5.8878084084920976e+00
cp1_1_time19_m_flow 0
cp1_1_time19_y 0
cp1_1_time19_delp 0
cp2_1_time19_m_flow 0
cp2_1_time19_y 0
cp2_1_time19_delp 0
cp3_1_time19_m_flow 0
cp3_1_time19_y 1
cp3_1_time19_delp 6.8050525437487286e+00
dist_np_combi_0_0_time19_m_flow 0
dist_np_combi_0_0_time19_y 0
dist_np_combi_0_0_time19_delp 0
dist_np_combi_1_0_time19_m_flow 0
dist_np_combi_1_0_time19_y 0
dist_np_combi_1_0_time19_delp 0
dist_np_combi_2_0_time19_m_flow 0
dist_np_combi_2_0_time19_y 0
dist_np_combi_2_0_time19_delp 0
dist_np_combi_3_0_time19_m_flow 0
dist_np_combi_3_0_time19_y 0
dist_np_combi_3_0_time19_delp 0
dist_np_combi_4_0_time19_m_flow 0
dist_np_combi_4_0_time19_y 0
dist_np_combi_4_0_time19_delp 0
dist_np_combi_5_0_time19_m_flow 0
dist_np_combi_5_0_time19_y 1
dist_np_combi_5_0_time19_delp 4.5514112318850515e+00
dist_np_combi_6_0_time19_m_flow 0
dist_np_combi_6_0_time19_y 0
dist_np_combi_6_0_time19_delp 0
enwk_1_time19_m_flow 0
enwk_1_time19_y 1
cnwk_1_time19_m_flow 0
cnwk_1_time19_y 1
ch1_1_time20_q_out 0
ch1_1_time20_y 0
ch2_1_time20_q_out 0
ch2_1_time20_y 0
ch3_1_time20_q_out 3056.4
ch3_1_time20_y 1
ep1_1_time20_m_flow 0
ep1_1_time20_y 0
ep1_1_time20_delp 0
ep2_1_time20_m_flow 0
ep2_1_time20_y 0
ep2_1_time20_delp 0
ep3_1_time20_m_flow 0
ep3_1_time20_y 1
ep3_1_time20_delp 7.0645379891317264e+00
cp1_1_time20_m_flow 0
cp1_1_time20_y 0
cp1_1_time20_delp 0
cp2_1_time20_m_flow 0
cp2_1_time20_y 0
cp2_1_time20_delp 0
cp3_1_time20_m_flow 0
cp3_1_time20_y 1
cp3_1_time20_delp 7.9922918007952211e+00
dist_np_combi_0_0_time20_m_flow 0
dist_np_combi_0_0_time20_y 0
dist_np_combi_0_0_time20_delp 0
dist_np_combi_1_0_time20_m_flow 0
dist_np_combi_1_0_time20_y 0
dist_np_combi_1_0_time20_delp 0
dist_np_combi_2_0_time20_m_flow 0
dist_np_combi_2_0_time20_y 0
dist_np_combi_2_0_time20_delp 0
dist_np_combi_3_0_time20_m_flow 0
dist_np_combi_3_0_time20_y 0
dist_np_combi_3_0_time20_delp 0
dist_np_combi_4_0_time20_m_flow 0
dist_np_combi_4_0_time20_y 0
dist_np_combi_4_0_time20_delp 0
dist_np_combi_5_0_time20_m_flow 0
dist_np_combi_5_0_time20_y 1
dist_np_combi_5_0_time20_delp 4.3692763237819854e+00
dist_np_combi_6_0_time20_m_flow 0
dist_np_combi_6_0_time20_y 0
dist_np_combi_6_0_time20_delp 0
enwk_1_time20_m_flow 0
enwk_1_time20_y 1
cnwk_1_time20_m_flow 0
cnwk_1_time20_y 1
ch1_1_time21_q_out 0
ch1_1_time21_y 0
ch2_1_time21_q_out 0
ch2_1_time21_y 0
ch3_1_time21_q_out 2306.4
ch3_1_time21_y 1
ep1_1_time21_m_flow 0
ep1_1_time21_y 0
ep1_1_time21_delp 0
ep2_1_time21_m_flow 0
ep2_1_time21_y 0
ep2_1_time21_delp 0
ep3_1_time21_m_flow 0
ep3_1_time21_y 1
ep3_1_time21_delp 5.3309941166514250e+00
cp1_1_time21_m_flow 0
cp1_1_time21_y 0
cp1_1_time21_delp 0
cp2_1_time21_m_flow 0
cp2_1_time21_y 0
cp2_1_time21_delp 0
cp3_1_time21_m_flow 0
cp3_1_time21_y 1
cp3_1_time21_delp 6.2225228427964163e+00
dist_np_combi_0_0_time21_m_flow 0
dist_np_combi_0_0_time21_y 0
dist_np_combi_0_0_time21_delp 0
dist_np_combi_1_0_time21_m_flow 0
dist_np_combi_1_0_time21_y 0
dist_np_combi_1_0_time21_delp 0
dist_np_combi_2_0_time21_m_flow 0
dist_np_combi_2_0_time21_y 0
dist_np_combi_2_0_time21_delp 0
dist_np_combi_3_0_time21_m_flow 0
dist_np_combi_3_0_time21_y 0
dist_np_combi_3_0_time21_delp 0
dist_np_combi_4_0_time21_m_flow 0
dist_np_combi_4_0_time21_y 0
dist_np_combi_4_0_time21_delp 0
dist_np_combi_5_0_time21_m_flow 0
dist_np_combi_5_0_time21_y 1
dist_np_combi_5_0_time21_delp 4.2613274611936243e+00
dist_np_combi_6_0_time21_m_flow 0
dist_np_combi_6_0_time21_y 0
dist_np_combi_6_0_time21_delp 0
enwk_1_time21_m_flow 0
enwk_1_time21_y 1
cnwk_1_time21_m_flow 0
cnwk_1_time21_y 1
ch1_1_time22_q_out 0
ch1_1_time22_y 0
ch2_1_time22_q_out 0
ch2_1_time22_y 0
ch3_1_time22_q_out 2376.4
ch3_1_time22_y 1
ep1_1_time22_m_flow 0
ep1_1_time22_y 0
ep1_1_time22_delp 0
ep2_1_time22_m_flow 0
ep2_1_time22_y 0
ep2_1_time22_delp 0
ep3_1_time22_m_flow 0
ep3_1_time22_y 1
ep3_1_time22_delp 5.4927915447495863e+00
cp1_1_time22_m_flow 0
cp1_1_time22_y 0
cp1_1_time22_delp 0
cp2_1_time22_m_flow 0
cp2_1_time22_y 0
cp2_1_time22_delp 0
cp3_1_time22_m_flow 0
cp3_1_time22_y 1
cp3_1_time22_delp 6.3877012788763041e+00
dist_np_combi_0_0_time22_m_flow 0
dist_np_combi_0_0_time22_y 0
dist_np_combi_0_0_time22_delp 0
dist_np_combi_1_0_time22_m_flow 0
dist_np_combi_1_0_time22_y 0
dist_np_combi_1_0_time22_delp 0
dist_np_combi_2_0_time22_m_flow 0
dist_np_combi_2_0_time22_y 0
dist_np_combi_2_0_time22_delp 0
dist_np_combi_3_0_time22_m_flow 0
dist_np_combi_3_0_time22_y 0
dist_np_combi_3_0_time22_delp 0
dist_np_combi_4_0_time22_m_flow 0
dist_np_combi_4_0_time22_y 0
dist_np_combi_4_0_time22_delp 0
dist_np_combi_5_0_time22_m_flow 0
dist_np_combi_5_0_time22_y 1
dist_np_combi_5_0_time22_delp 4.3143005581408600e+00
dist_np_combi_6_0_time22_m_flow 0
dist_np_combi_6_0_time22_y 0
dist_np_combi_6_0_time22_delp 0
enwk_1_time22_m_flow 0
enwk_1_time22_y 1
cnwk_1_time22_m_flow 0
cnwk_1_time22_y 1
ch1_1_time23_q_out 1358.2
ch1_1_time23_y 1
ch2_1_time23_q_out 0
ch2_1_time23_y 0
ch3_1_time23_q_out 0
ch3_1_time23_y 0
ep1_1_time23_m_flow 0
ep1_1_time23_y 1
ep1_1_time23_delp 8.3210865228010249e+00
ep2_1_time23_m_flow 0
ep2_1_time23_y 0
ep2_1_time23_delp 0
ep3_1_time23_m_flow 0
ep3_1_time23_y 0
ep3_1_time23_delp 0
cp1_1_time23_m_flow 0
cp1_1_time23_y 1
cp1_1_time23_delp 8.9874189488079423e+00
cp2_1_time23_m_flow 0
cp2_1_time23_y 0
cp2_1_time23_delp 0
cp3_1_time23_m_flow 0
cp3_1_time23_y 0
cp3_1_time23_delp 0
dist_np_combi_0_0_time23_m_flow 0
dist_np_combi_0_0_time23_y 0
dist_np_combi_0_0_time23_delp 0
dist_np_combi_1_0_time23_m_flow 0
dist_np_combi_1_0_time23_y 0
dist_np_combi_1_0_time23_delp 0
dist_np_combi_2_0_time23_m_flow 0
dist_np_combi_2_0_time23_y 0
dist_np_combi_2_0_time23_delp 0
dist_np_combi_3_0_time23_m_flow 0
dist_np_combi_3_0_time23_y 0
dist_np_combi_3_0_time23_delp 0
dist_np_combi_4_0_time23_m_flow 0
dist_np_combi_4_0_time23_y 0
dist_np_combi_4_0_time23_delp 0
dist_np_combi_5_0_time23_m_flow 0
dist_np_combi_5_0_time23_y 1
dist_np_combi_5_0_time23_delp 1.2424328094469947e+00
dist_np_combi_6_0_time23_m_flow 0
dist_np_combi_6_0_time23_y 0
dist_np_combi_6_0_time23_delp 0
enwk_1_time23_m_flow 0
enwk_1_time23_y 1
cnwk_1_time23_m_flow 0
cnwk_1_time23_y 1
cws_time0_q_stored_extracted 0
cws_time0_y 1
cws_time1_q_stored_extracted 4.4299862387499996e+02
cws_time1_y 1
cws_time2_q_stored_extracted 0
cws_time2_y 1
cws_time3_q_stored_extracted 7.6282190366873988e+02
cws_time3_y 1
cws_time4_q_stored_extracted 3.4560504587499190e+02
cws_time4_y 1
cws_time5_q_stored_extracted 0
cws_time5_y 1
cws_time6_q_stored_extracted 8.7060504587499952e+02
cws_time6_y 1
cws_time7_q_stored_extracted 0
cws_time7_y 1
cws_time8_q_stored_extracted 0
cws_time8_y 1
cws_time9_q_stored_extracted 0
cws_time9_y 1
cws_time10_q_stored_extracted 0
cws_time10_y 1
cws_time11_q_stored_extracted 0
cws_time11_y 1
cws_time12_q_stored_extracted 0
cws_time12_y 1
cws_time13_q_stored_extracted 0
cws_time13_y 1
cws_time14_q_stored_extracted 0
cws_time14_y 1
cws_time15_q_stored_extracted 0
cws_time15_y 1
cws_time16_q_stored_extracted 0
cws_time16_y 1
cws_time17_q_stored_extracted 0
cws_time17_y 1
cws_time18_q_stored_extracted 0
cws_time18_y 1
cws_time19_q_stored_extracted 0
cws_time19_y 1
cws_time20_q_stored_extracted 0
cws_time20_y 1
cws_time21_q_stored_extracted 0
cws_time21_y 1
cws_time22_q_stored_extracted 0
cws_time22_y 1
cws_time23_q_stored_extracted 0
cws_time23_y 1
cb_ss_time0_demand 849.1
cb_ss_time0_y 1
cb_ss_time1_demand 859.1
cb_ss_time1_y 1
cb_ss_time2_demand 3.5439889909999999e+02
cb_ss_time2_y 1
cb_ss_time3_demand 3.6648403669999999e+02
cb_ss_time3_y 1
cb_ss_time4_demand 2.6465247706000002e+02
cb_ss_time4_y 1
cb_ss_time5_demand 2.7648403669999999e+02
cb_ss_time5_y 1
cb_ss_time6_demand 2.5465247706000000e+02
cb_ss_time6_y 1
cb_ss_time7_demand 6.9648403670000005e+02
cb_ss_time7_y 1
cb_ss_time8_demand 1.8950440367000001e+03
cb_ss_time8_y 1
cb_ss_time9_demand 1379.1
cb_ss_time9_y 1
cb_ss_time10_demand 1968.2
cb_ss_time10_y 1
cb_ss_time11_demand 2477.3
cb_ss_time11_y 1
cb_ss_time12_demand 3076.4
cb_ss_time12_y 1
cb_ss_time13_demand 2597.3
cb_ss_time13_y 1
cb_ss_time14_demand 2946.4
cb_ss_time14_y 1
cb_ss_time15_demand 3136.4
cb_ss_time15_y 1
cb_ss_time16_demand 3046.4
cb_ss_time16_y 1
cb_ss_time17_demand 3086.4
cb_ss_time17_y 1
cb_ss_time18_demand 2996.4
cb_ss_time18_y 1
cb_ss_time19_demand 2547.3
cb_ss_time19_y 1
cb_ss_time20_demand 3056.4
cb_ss_time20_y 1
cb_ss_time21_demand 2306.4
cb_ss_time21_y 1
cb_ss_time22_demand 2376.4
cb_ss_time22_y 1
cb_ss_time23_demand 1358.2
cb_ss_time23_y 1
